true true true
presolving:
presolving (0 rounds: 0 fast, 0 medium, 0 exhaustive):
 0 deleted vars, 0 deleted constraints, 0 added constraints, 0 tightened bounds, 0 added holes, 0 changed sides, 0 changed coefficients
 0 implications, 0 cliques
presolved problem has 55 variables (55 bin, 0 int, 0 impl, 0 cont) and 45 constraints
     45 constraints of type <linear>
transformed objective value is always integral (scale: 1)
Presolving Time: 0.00

 time | node  | left  |LP iter|LP it/n|mem/heur|mdpt |vars |cons |rows |cuts |sepa|confs|strbr|  dualbound   | primalbound  |  gap   | compl. 
p 0.0s|     1 |     0 |     0 |     - |shiftand|   0 |  55 |  45 |  45 |   0 |  0 |   0 |   0 |      --      | 1.000000e+01 |    Inf | unknown
 time | node  | left  |LP iter|LP it/n|mem/heur|mdpt |vars |cons |rows |cuts |sepa|confs|strbr|  dualbound   | primalbound  |  gap   | compl. 
  0.0s|     1 |     0 |    45 |     - |  1643k |   0 | 347 |  45 |  45 |   0 |  0 |   0 |   0 | 1.000000e+00 | 1.000000e+01 | 900.00%| unknown
 time | node  | left  |LP iter|LP it/n|mem/heur|mdpt |vars |cons |rows |cuts |sepa|confs|strbr|  dualbound   | primalbound  |  gap   | compl. 
  0.2s|     1 |     0 |   313 |     - |  2993k |   0 | 921 |  45 |  45 |   0 |  0 |   0 |   0 | 9.000000e+00 | 1.000000e+01 |  11.11%| unknown
 time | node  | left  |LP iter|LP it/n|mem/heur|mdpt |vars |cons |rows |cuts |sepa|confs|strbr|  dualbound   | primalbound  |  gap   | compl. 
  0.3s|     1 |     2 |   619 |     - |  3272k |   0 | 921 |  45 |  45 |   0 |  1 |   0 |   0 | 9.000000e+00 | 1.000000e+01 |  11.11%| unknown
 time | node  | left  |LP iter|LP it/n|mem/heur|mdpt |vars |cons |rows |cuts |sepa|confs|strbr|  dualbound   | primalbound  |  gap   | compl. 
  0.3s|     2 |     3 |   623 |   4.0 |  3318k |   1 | 921 |  45 |  45 |   0 |  1 |   0 |   0 | 9.000000e+00 | 1.000000e+01 |  11.11%| unknown
 time | node  | left  |LP iter|LP it/n|mem/heur|mdpt |vars |cons |rows |cuts |sepa|confs|strbr|  dualbound   | primalbound  |  gap   | compl. 
  0.3s|     3 |     4 |   651 |  16.0 |  3443k |   1 | 921 |  45 |  45 |   0 |  1 |   0 |   0 | 9.000000e+00 | 1.000000e+01 |  11.11%| unknown
 time | node  | left  |LP iter|LP it/n|mem/heur|mdpt |vars |cons |rows |cuts |sepa|confs|strbr|  dualbound   | primalbound  |  gap   | compl. 
  0.4s|     4 |     5 |   672 |  17.7 |  3453k |   2 | 921 |  45 |  45 |   0 |  1 |   0 |   0 | 9.000000e+00 | 1.000000e+01 |  11.11%| unknown
 time | node  | left  |LP iter|LP it/n|mem/heur|mdpt |vars |cons |rows |cuts |sepa|confs|strbr|  dualbound   | primalbound  |  gap   | compl. 
  0.4s|     5 |     6 |   691 |  18.0 |  3455k |   3 | 921 |  45 |  45 |   0 |  1 |   0 |   0 | 9.000000e+00 | 1.000000e+01 |  11.11%| unknown
 time | node  | left  |LP iter|LP it/n|mem/heur|mdpt |vars |cons |rows |cuts |sepa|confs|strbr|  dualbound   | primalbound  |  gap   | compl. 
  0.4s|     6 |     7 |   699 |  16.0 |  3458k |   3 | 921 |  45 |  45 |   0 |  1 |   0 |   0 | 9.000000e+00 | 1.000000e+01 |  11.11%| unknown
 time | node  | left  |LP iter|LP it/n|mem/heur|mdpt |vars |cons |rows |cuts |sepa|confs|strbr|  dualbound   | primalbound  |  gap   | compl. 
  0.5s|     7 |     8 |   720 |  16.8 |  3461k |   4 | 921 |  45 |  45 |   0 |  1 |   0 |   0 | 9.000000e+00 | 1.000000e+01 |  11.11%| unknown
 time | node  | left  |LP iter|LP it/n|mem/heur|mdpt |vars |cons |rows |cuts |sepa|confs|strbr|  dualbound   | primalbound  |  gap   | compl. 
  0.6s|     8 |     9 |   725 |  15.1 |  3463k |   4 | 921 |  45 |  45 |   0 |  1 |   0 |   0 | 9.000000e+00 | 1.000000e+01 |  11.11%| unknown
 time | node  | left  |LP iter|LP it/n|mem/heur|mdpt |vars |cons |rows |cuts |sepa|confs|strbr|  dualbound   | primalbound  |  gap   | compl. 
  0.6s|     9 |    10 |   757 |  17.2 |  3598k |   5 | 921 |  45 |  45 |   0 |  1 |   0 |   0 | 9.000000e+00 | 1.000000e+01 |  11.11%| unknown
 time | node  | left  |LP iter|LP it/n|mem/heur|mdpt |vars |cons |rows |cuts |sepa|confs|strbr|  dualbound   | primalbound  |  gap   | compl. 
  0.7s|    10 |    11 |   760 |  15.7 |  3599k |   5 | 921 |  45 |  45 |   0 |  1 |   0 |   0 | 9.000000e+00 | 1.000000e+01 |  11.11%| unknown
 time | node  | left  |LP iter|LP it/n|mem/heur|mdpt |vars |cons |rows |cuts |sepa|confs|strbr|  dualbound   | primalbound  |  gap   | compl. 
  0.8s|    11 |    12 |   761 |  14.2 |  3602k |   6 | 921 |  45 |  45 |   0 |  1 |   0 |   0 | 9.000000e+00 | 1.000000e+01 |  11.11%| unknown
 time | node  | left  |LP iter|LP it/n|mem/heur|mdpt |vars |cons |rows |cuts |sepa|confs|strbr|  dualbound   | primalbound  |  gap   | compl. 
  0.9s|    12 |    13 |   772 |  13.9 |  3603k |   7 | 921 |  45 |  45 |   0 |  1 |   0 |   0 | 9.000000e+00 | 1.000000e+01 |  11.11%| unknown
 time | node  | left  |LP iter|LP it/n|mem/heur|mdpt |vars |cons |rows |cuts |sepa|confs|strbr|  dualbound   | primalbound  |  gap   | compl. 
  1.0s|    13 |    14 |   790 |  14.2 |  3603k |   7 | 921 |  45 |  45 |   0 |  1 |   0 |   0 | 9.000000e+00 | 1.000000e+01 |  11.11%| unknown
 time | node  | left  |LP iter|LP it/n|mem/heur|mdpt |vars |cons |rows |cuts |sepa|confs|strbr|  dualbound   | primalbound  |  gap   | compl. 
  1.1s|    14 |    15 |   796 |  13.6 |  3607k |   8 | 921 |  45 |  45 |   0 |  1 |   0 |   0 | 9.000000e+00 | 1.000000e+01 |  11.11%| unknown
 time | node  | left  |LP iter|LP it/n|mem/heur|mdpt |vars |cons |rows |cuts |sepa|confs|strbr|  dualbound   | primalbound  |  gap   | compl. 
  1.2s|    15 |    16 |   807 |  13.4 |  3607k |   9 | 921 |  45 |  45 |   0 |  1 |   0 |   0 | 9.000000e+00 | 1.000000e+01 |  11.11%| unknown
 time | node  | left  |LP iter|LP it/n|mem/heur|mdpt |vars |cons |rows |cuts |sepa|confs|strbr|  dualbound   | primalbound  |  gap   | compl. 
d 1.3s|    16 |     0 |   840 |  14.7 |pscostdi|   9 | 921 |  45 |  45 |   0 |  1 |   0 |   0 | 9.000000e+00 | 9.000000e+00 |   0.00%| 100.00%

SCIP Status        : problem is solved [optimal solution found]
Solving Time (sec) : 1.25
Solving Nodes      : 16
Primal Bound       : +9.00000000000000e+00 (3 solutions)
Dual Bound         : +9.00000000000000e+00
Gap                : 0.00 %
Running with parallel: True bidir: True symbreak: True
Number of Nodes:  45
47.26803840877915% holds
starting cheapest insertion heuristic
Heuristic without TSP improvement:  11
Heuristic without TSP improvement time:  0.1
Heuristic Sol:  10
Heuristic total time:  0.1
[[26, 41, 3, 34, 4, 21, 13], [43, 18, 35, 20], [44, 14, 25, 11, 17, 30], [42, 39, 33, 16, 40, 19], [38, 10, 6, 28, 22], [37, 8, 12, 15], [36, 0, 1, 9], [31, 29, 2], [32, 7], [27, 24, 5, 23]]
Instance path:  /home/htc/mghannam/SCRATCH/lccp-rust/data/at84_ftv44.npcc
Timelimit:  7200
Heuristic without TSP improvement:  11
Heuristic without TSP improvement time:  0.1
Heuristic Sol:  10
Heuristic total time:  0.1
at 1 zero_duals: 35
at1, LP obj: 10.0 n_added_paths: 292
at 1 zero_duals: 23
at1, LP obj: 10.0 n_added_paths: 205
at 1 zero_duals: 9
at1, LP obj: 9.461538461538462 n_added_paths: 189
at 1 zero_duals: 10
at1, LP obj: 8.842105263157896 n_added_paths: 140
at 1 zero_duals: 6
at1, LP obj: 8.617977528089888 n_added_paths: 19
at 1 zero_duals: 6
Switching to elementary pricing
at1, LP obj: 8.568181818181818 n_added_paths: 17
updated lowerbound from 1.0 to 8
at 1 zero_duals: 9
Switching to elementary pricing
at1, LP obj: 8.363636363636363 n_added_paths: 4
updated lowerbound from 8.0 to 9
Gap too small = 0, stopping pricing with lb = 9
Gap too small = 0, stopping pricing with lb = 9
Gap too small = 0, stopping pricing with lb = 9
Gap too small = 0, stopping pricing with lb = 9
Gap too small = 0, stopping pricing with lb = 9
Gap too small = 0, stopping pricing with lb = 9
Gap too small = 0, stopping pricing with lb = 9
Gap too small = 0, stopping pricing with lb = 9
Gap too small = 0, stopping pricing with lb = 9
Gap too small = 0, stopping pricing with lb = 9
Gap too small = 0, stopping pricing with lb = 9
Gap too small = 0, stopping pricing with lb = 9
Gap too small = 0, stopping pricing with lb = 9
Gap too small = 0, stopping pricing with lb = 9
Gap too small = 0, stopping pricing with lb = 9
Gap too small = 0, stopping pricing with lb = 9
Best solution found:
t_[43, 18, 35, 20, 43] 1.0 1.0
checking cycle [43, 18, 35, 20, 43]
[43, 18, 35, 20, 43] 202 152
t_[44, 14, 25, 11, 17, 30, 44] 1.0 1.0
checking cycle [44, 14, 25, 11, 17, 30, 44]
[44, 14, 25, 11, 17, 30, 44] 202 195
t_[37, 8, 12, 15, 37] 1.0 1.0
checking cycle [37, 8, 12, 15, 37]
[37, 8, 12, 15, 37] 251 239
t_[27, 24, 5, 23, 27] 1.0 1.0
checking cycle [27, 24, 5, 23, 27]
[27, 24, 5, 23, 27] 284 251
[10, 7, 3, 4, 10] 1.0 1.0
checking cycle [10, 7, 3, 4, 10]
[10, 7, 3, 4, 10] 347 264
[28, 22, 6, 29, 28] 1.0 1.0
checking cycle [28, 22, 6, 29, 28]
[28, 22, 6, 29, 28] 275 241
[40, 2, 31, 38, 32, 19, 40] 1.0 1.0
checking cycle [40, 2, 31, 38, 32, 19, 40]
[40, 2, 31, 38, 32, 19, 40] 221 214
[41, 34, 16, 21, 13, 26, 41] 1.0 1.0
checking cycle [41, 34, 16, 21, 13, 26, 41]
[41, 34, 16, 21, 13, 26, 41] 219 217
[42, 33, 39, 36, 9, 1, 0, 42] 1.0 1.0
checking cycle [42, 33, 39, 36, 9, 1, 0, 42]
[42, 33, 39, 36, 9, 1, 0, 42] 215 211
